language ESSENCE' 1.0

letting fixed be 
[
    [0,1,9,0,4,0,7,5,0],
    [0,5,0,0,0,0,0,0,0],
    [0,3,6,0,5,2,0,8,9],
    [0,8,5,4,2,0,0,7,3],
    [0,9,7,0,0,6,0,1,5],
    [3,0,0,0,0,5,0,0,8],
    [0,0,0,5,0,0,8,9,0],
    [5,0,8,9,1,4,0,0,0],
    [9,0,3,2,0,0,5,0,1]
]